470 496 497 519 518 520 517 516 515 514 522 521 523 526 491 490 529 528 527 512 513 511 510 509 301 302 508 507 506 505 504 503 502 498 501 500 499 452 461 462 463 464 465 460 459 458 457 456 455 454 439 453 440 441 450 449 448 447 446 442 443 444 445 436 438 437 435 434 433 432 430 431 429 428 427 426 425 424 423 422 421 420 419 417 418 410 411 412 356 355 354 353 413 414 416 415 352 351 350 349 348 347 362 363 361 360 359 358 357 401 402 403 404 405 408 407 406 400 399 397 398 364 346 345 344 343 342 365 368 369 370 367 366 329 328 327 326 325 324 323 322 373 372 371 396 395 394 393 391 389 388 387 385 409 384 383 386 382 381 390 392 380 379 378 377 376 375 374 315 314 316 313 312 451 311 310 309 308 307 303 304 306 305 318 317 319 320 321 297 296 295 294 293 292 291 330 331 332 340 341 339 338 337 336 333 335 334 283 284 285 286 287 280 281 282 279 278 277 276 288 289 290 275 274 273 272 271 268 269 270 267 266 265 264 263 262 298 299 258 259 260 261 255 253 254 252 251 250 249 256 257 300 241 248 242 243 244 245 247 246 238 239 240 237 236 235 234 232 233 530 531 532 533 488 489 486 487 534 535 536 537 539 538 540 187 188 186 182 183 185 184 197 196 195 194 193 192 191 190 189 227 228 229 230 231 225 226 219 218 220 221 222 224 223 217 216 215 214 213 212 211 210 209 208 207 206 205 198 199 200 201 202 204 203 165 154 164 166 167 163 168 162 161 160 159 156 155 153 157 158 145 144 143 142 146 147 148 152 149 150 151 141 140 139 136 135 134 133 132 131 130 129 137 138 128 116 115 114 113 112 111 110 172 175 170 171 169 180 181 179 178 177 176 174 173 108 109 107 542 541 543 544 545 546 547 103 104 105 106 117 126 127 125 124 69 70 68 67 66 65 75 74 73 119 72 71 123 122 121 120 118 95 96 97 98 99 100 102 101 551 550 559 552 553 554 556 44 45 46 555 91 92 93 94 89 90 87 88 77 76 64 63 62 78 80 79 61 60 59 81 86 85 84 83 82 57 58 56 55 53 54 52 51 50 49 48 47 43 42 39 40 41 557 558 34 33 35 38 37 36 32 30 31 22 23 12 11 10 16 15 14 13 21 24 25 26 27 28 29 567 566 565 564 563 562 561 560 549 548 478 477 479 480 476 475 482 481 483 484 485 493 492 525 524 494 495 471 472 473 474 570 569 568 20 19 18 17 8 9 7 6 5 4 3 2 1 0 573 572 571 466 467 468 469